1 -452 -455 0
-452 -453 -455 0
-20 452 -455 0
437 20 -453 0
-453 -455 0
d -452 -453 -455 0
1 107 -16 20 0
452 -454 -455 0
-454 -455 0
d 452 -454 -455 0
-452 -455 0
d 1 -452 -455 0
-455 0
20 452 0
1 452 0
452 0
-1 -20 0
-20 0
19 0
-1 0
-433 0
-38 0
437 0
0
